This is Ipopt version 3.11.9, running with linear solver mumps.
NOTE: Other linear solvers might be more efficient (see Ipopt documentation).

Number of nonzeros in equality constraint Jacobian...:        0
Number of nonzeros in inequality constraint Jacobian.:     1908
Number of nonzeros in Lagrangian Hessian.............:     7549

Total number of variables............................:     1908
                     variables with only lower bounds:     1908
                variables with lower and upper bounds:        0
                     variables with only upper bounds:        0
Total number of equality constraints.................:        0
Total number of inequality constraints...............:        1
        inequality constraints with only lower bounds:        0
   inequality constraints with lower and upper bounds:        1
        inequality constraints with only upper bounds:        0

iter    objective    inf_pr   inf_du lg(mu)  ||d||  lg(rg) alpha_du alpha_pr  ls
   0  3.3501762e+01 0.00e+00 3.06e-01   0.0 0.00e+00    -  0.00e+00 0.00e+00   0
   1  3.3231219e+01 0.00e+00 2.16e-01  -3.4 1.99e-01    -  6.35e-01 5.87e-01f  1
   2  3.3190005e+01 0.00e+00 1.21e-01  -3.1 4.03e-01    -  9.22e-01 1.00e+00f  1
   3  3.2997064e+01 0.00e+00 6.49e-02  -3.3 2.62e-02    -  1.00e+00 9.86e-01f  1
   4  3.2894241e+01 0.00e+00 7.01e-02  -4.4 1.92e-01    -  1.00e+00 5.09e-01f  1
   5  3.2798252e+01 0.00e+00 5.78e-02  -4.4 1.32e-01    -  1.00e+00 9.19e-01f  1
   6  3.2774923e+01 0.00e+00 3.59e-02  -4.6 6.34e-02    -  1.00e+00 9.95e-01h  1
   7  3.2764494e+01 0.00e+00 2.54e-02  -5.0 4.35e-02    -  1.00e+00 9.95e-01h  1
   8  3.2759549e+01 0.00e+00 1.79e-02  -5.5 3.00e-02    -  1.00e+00 9.99e-01h  1
   9  3.2757788e+01 0.00e+00 1.02e-02  -5.8 1.96e-02    -  1.00e+00 9.99e-01h  1
iter    objective    inf_pr   inf_du lg(mu)  ||d||  lg(rg) alpha_du alpha_pr  ls
  10  3.2756880e+01 0.00e+00 5.69e-03  -6.1 1.33e-02    -  1.00e+00 9.98e-01h  1
  11  3.2756429e+01 0.00e+00 3.62e-03  -6.4 9.11e-03    -  1.00e+00 1.00e+00h  1
  12  3.2756104e+01 0.00e+00 2.61e-03  -7.3 6.45e-03    -  1.00e+00 1.00e+00h  1
  13  3.2756005e+01 0.00e+00 1.89e-03  -8.5 4.33e-03    -  1.00e+00 1.00e+00h  1
  14  3.2755966e+01 0.00e+00 1.36e-03  -9.8 2.97e-03    -  1.00e+00 1.00e+00h  1
  15  3.2755943e+01 0.00e+00 9.78e-04 -10.5 2.07e-03    -  1.00e+00 1.00e+00h  1
  16  3.2755928e+01 0.00e+00 6.98e-04 -10.7 1.46e-03    -  1.00e+00 1.00e+00h  1
  17  3.2755917e+01 0.00e+00 4.94e-04 -11.0 1.03e-03    -  1.00e+00 1.00e+00h  1
  18  3.2755908e+01 0.00e+00 3.48e-04 -11.0 7.28e-04    -  1.00e+00 1.00e+00h  1
  19  3.2755902e+01 0.00e+00 2.44e-04 -11.0 5.16e-04    -  1.00e+00 1.00e+00h  1
iter    objective    inf_pr   inf_du lg(mu)  ||d||  lg(rg) alpha_du alpha_pr  ls
  20  3.2755898e+01 0.00e+00 1.69e-04 -11.0 3.67e-04    -  1.00e+00 1.00e+00h  1
  21  3.2755894e+01 0.00e+00 1.28e-04 -11.0 2.62e-04    -  1.00e+00 1.00e+00h  1
  22  3.2755891e+01 0.00e+00 1.00e-04 -11.0 1.88e-04    -  1.00e+00 1.00e+00h  1
  23  3.2755889e+01 0.00e+00 7.82e-05 -11.0 1.35e-04    -  1.00e+00 1.00e+00h  1
  24  3.2755888e+01 0.00e+00 6.11e-05 -11.0 9.73e-05    -  1.00e+00 1.00e+00h  1
  25  3.2755887e+01 0.00e+00 4.77e-05 -11.0 7.04e-05    -  1.00e+00 1.00e+00h  1
  26  3.2755886e+01 0.00e+00 3.73e-05 -11.0 5.12e-05    -  1.00e+00 1.00e+00h  1
  27  3.2755885e+01 0.00e+00 2.92e-05 -11.0 3.73e-05    -  1.00e+00 1.00e+00h  1
  28  3.2755884e+01 0.00e+00 2.28e-05 -11.0 2.73e-05    -  1.00e+00 1.00e+00h  1
  29  3.2755884e+01 0.00e+00 1.79e-05 -11.0 2.01e-05    -  1.00e+00 1.00e+00h  1
iter    objective    inf_pr   inf_du lg(mu)  ||d||  lg(rg) alpha_du alpha_pr  ls
  30  3.2755884e+01 0.00e+00 1.40e-05 -11.0 1.48e-05    -  1.00e+00 1.00e+00h  1
  31  3.2755883e+01 0.00e+00 1.09e-05 -11.0 1.10e-05    -  1.00e+00 1.00e+00h  1
  32  3.2755883e+01 0.00e+00 8.56e-06 -11.0 8.19e-06    -  1.00e+00 1.00e+00h  1

Number of Iterations....: 32

                                   (scaled)                 (unscaled)
Objective...............:   3.2755883196100633e+01    3.2755883196100633e+01
Dual infeasibility......:   8.5611934384777211e-06    8.5611934384777211e-06
Constraint violation....:   0.0000000000000000e+00    0.0000000000000000e+00
Complementarity.........:   1.0000032928878808e-11    1.0000032928878808e-11
Overall NLP error.......:   8.5611934384777211e-06    8.5611934384777211e-06


Number of objective function evaluations             = 33
Number of objective gradient evaluations             = 33
Number of equality constraint evaluations            = 0
Number of inequality constraint evaluations          = 34
Number of equality constraint Jacobian evaluations   = 0
Number of inequality constraint Jacobian evaluations = 33
Number of Lagrangian Hessian evaluations             = 32
Total CPU secs in IPOPT (w/o function evaluations)   =      0.140
Total CPU secs in NLP function evaluations           =      3.752

EXIT: Optimal Solution Found.
